120
150
54
47
54
56
53
45
60
42
52
49
48
52
58
59
48
43
50
52
48
40
58
41
51
52
53
49
56
45
59
51
45
50
58
59
43
53
56
48
43
53
54
48
60
56
50
44
56
54
42
51
40
59
58
49
57
52
43
52
40
58
42
48
47
55
41
49
56
55
47
48
47
59
45
59
43
48
44
41
49
53
59
56
48
49
49
52
40
53
41
56
54
53
60
44
51
51
48
47
51
52
46
57
50
55
50
53
52
49
42
59
45
54
44
52
45
43
43
45
45
60
